90 4005
1 2 245
1 3 133
1 4 156
1 5 155
1 6 199
1 7 203
1 8 85
1 9 118
1 10 221
1 11 17
1 12 237
1 13 23
1 14 266
1 15 143
1 16 196
1 17 39
1 18 19
1 19 205
1 20 157
1 21 102
1 22 15
1 23 177
1 24 1
1 25 96
1 26 85
1 27 232
1 28 41
1 29 168
1 30 22
1 31 104
1 32 260
1 33 263
1 34 66
1 35 229
1 36 243
1 37 45
1 38 240
1 39 53
1 40 29
1 41 88
1 42 130
1 43 236
1 44 243
1 45 42
1 46 81
1 47 51
1 48 151
1 49 226
1 50 87
1 51 16
1 52 90
1 53 119
1 54 260
1 55 28
1 56 112
1 57 46
1 58 166
1 59 14
1 60 82
1 61 231
1 62 90
1 63 180
1 64 169
1 65 229
1 66 108
1 67 123
1 68 160
1 69 161
1 70 34
1 71 114
1 72 215
1 73 136
1 74 266
1 75 234
1 76 203
1 77 171
1 78 108
1 79 207
1 80 85
1 81 76
1 82 63
1 83 188
1 84 27
1 85 212
1 86 212
1 87 219
1 88 113
1 89 0
1 90 231
2 3 133
2 4 259
2 5 112
2 6 180
2 7 48
2 8 74
2 9 68
2 10 37
2 11 72
2 12 223
2 13 57
2 14 159
2 15 17
2 16 237
2 17 252
2 18 48
2 19 246
2 20 34
2 21 43
2 22 66
2 23 208
2 24 104
2 25 17
2 26 107
2 27 10
2 28 182
2 29 198
2 30 237
2 31 246
2 32 260
2 33 213
2 34 96
2 35 46
2 36 137
2 37 26
2 38 62
2 39 224
2 40 249
2 41 242
2 42 130
2 43 140
2 44 134
2 45 133
2 46 161
2 47 217
2 48 53
2 49 221
2 50 173
2 51 5
2 52 162
2 53 32
2 54 256
2 55 108
2 56 78
2 57 195
2 58 88
2 59 179
2 60 150
2 61 144
2 62 248
2 63 59
2 64 165
2 65 176
2 66 246
2 67 123
2 68 62
2 69 26
2 70 183
2 71 264
2 72 221
2 73 184
2 74 212
2 75 232
2 76 117
2 77 267
2 78 203
2 79 87
2 80 70
2 81 179
2 82 75
2 83 152
2 84 81
2 85 229
2 86 49
2 87 101
2 88 231
2 89 20
2 90 209
3 4 14
3 5 183
3 6 155
3 7 164
3 8 50
3 9 162
3 10 100
3 11 101
3 12 7
3 13 7
3 14 205
3 15 31
3 16 145
3 17 153
3 18 45
3 19 213
3 20 244
3 21 170
3 22 132
3 23 178
3 24 56
3 25 94
3 26 177
3 27 154
3 28 75
3 29 3
3 30 15
3 31 155
3 32 132
3 33 39
3 34 91
3 35 193
3 36 122
3 37 242
3 38 61
3 39 138
3 40 259
3 41 150
3 42 31
3 43 119
3 44 79
3 45 7
3 46 109
3 47 29
3 48 246
3 49 256
3 50 151
3 51 197
3 52 176
3 53 127
3 54 96
3 55 12
3 56 113
3 57 257
3 58 50
3 59 227
3 60 232
3 61 165
3 62 99
3 63 181
3 64 166
3 65 80
3 66 137
3 67 177
3 68 166
3 69 138
3 70 170
3 71 253
3 72 85
3 73 101
3 74 164
3 75 253
3 76 60
3 77 186
3 78 244
3 79 245
3 80 255
3 81 129
3 82 230
3 83 235
3 84 46
3 85 187
3 86 59
3 87 226
3 88 118
3 89 116
3 90 69
4 5 6
4 6 249
4 7 252
4 8 49
4 9 225
4 10 202
4 11 208
4 12 236
4 13 146
4 14 217
4 15 189
4 16 69
4 17 137
4 18 24
4 19 139
4 20 230
4 21 0
4 22 248
4 23 259
4 24 176
4 25 248
4 26 220
4 27 162
4 28 243
4 29 209
4 30 134
4 31 107
4 32 146
4 33 245
4 34 108
4 35 46
4 36 106
4 37 222
4 38 150
4 39 225
4 40 173
4 41 201
4 42 223
4 43 189
4 44 36
4 45 131
4 46 97
4 47 4
4 48 162
4 49 87
4 50 109
4 51 163
4 52 170
4 53 130
4 54 167
4 55 72
4 56 250
4 57 111
4 58 159
4 59 192
4 60 184
4 61 35
4 62 93
4 63 101
4 64 47
4 65 168
4 66 129
4 67 22
4 68 140
4 69 192
4 70 102
4 71 74
4 72 216
4 73 35
4 74 178
4 75 95
4 76 57
4 77 101
4 78 203
4 79 142
4 80 199
4 81 174
4 82 36
4 83 61
4 84 249
4 85 21
4 86 171
4 87 33
4 88 249
4 89 110
4 90 65
5 6 29
5 7 203
5 8 11
5 9 181
5 10 129
5 11 212
5 12 220
5 13 197
5 14 204
5 15 261
5 16 190
5 17 160
5 18 150
5 19 2
5 20 201
5 21 269
5 22 5
5 23 220
5 24 183
5 25 138
5 26 176
5 27 196
5 28 130
5 29 111
5 30 138
5 31 194
5 32 71
5 33 43
5 34 182
5 35 246
5 36 123
5 37 12
5 38 173
5 39 25
5 40 23
5 41 234
5 42 128
5 43 15
5 44 181
5 45 30
5 46 89
5 47 64
5 48 241
5 49 264
5 50 9
5 51 195
5 52 93
5 53 10
5 54 68
5 55 105
5 56 45
5 57 149
5 58 39
5 59 89
5 60 138
5 61 4
5 62 62
5 63 55
5 64 261
5 65 30
5 66 75
5 67 154
5 68 265
5 69 171
5 70 74
5 71 143
5 72 80
5 73 14
5 74 135
5 75 214
5 76 121
5 77 141
5 78 19
5 79 217
5 80 122
5 81 233
5 82 86
5 83 255
5 84 219
5 85 61
5 86 119
5 87 179
5 88 59
5 89 234
5 90 164
6 7 186
6 8 59
6 9 115
6 10 34
6 11 96
6 12 34
6 13 61
6 14 200
6 15 74
6 16 150
6 17 65
6 18 16
6 19 66
6 20 214
6 21 218
6 22 128
6 23 22
6 24 22
6 25 162
6 26 208
6 27 69
6 28 62
6 29 256
6 30 2
6 31 173
6 32 163
6 33 75
6 34 39
6 35 117
6 36 207
6 37 107
6 38 32
6 39 113
6 40 234
6 41 55
6 42 127
6 43 7
6 44 123
6 45 93
6 46 98
6 47 232
6 48 97
6 49 25
6 50 71
6 51 182
6 52 52
6 53 53
6 54 187
6 55 264
6 56 26
6 57 26
6 58 268
6 59 24
6 60 88
6 61 208
6 62 122
6 63 170
6 64 7
6 65 219
6 66 146
6 67 39
6 68 163
6 69 153
6 70 39
6 71 39
6 72 150
6 73 216
6 74 5
6 75 224
6 76 234
6 77 84
6 78 127
6 79 241
6 80 154
6 81 182
6 82 118
6 83 265
6 84 152
6 85 172
6 86 52
6 87 99
6 88 269
6 89 152
6 90 57
7 8 219
7 9 222
7 10 262
7 11 150
7 12 74
7 13 199
7 14 71
7 15 35
7 16 244
7 17 92
7 18 139
7 19 73
7 20 70
7 21 123
7 22 118
7 23 56
7 24 124
7 25 56
7 26 39
7 27 20
7 28 251
7 29 135
7 30 131
7 31 201
7 32 48
7 33 214
7 34 157
7 35 188
7 36 34
7 37 216
7 38 123
7 39 248
7 40 172
7 41 203
7 42 36
7 43 124
7 44 11
7 45 72
7 46 172
7 47 19
7 48 200
7 49 23
7 50 143
7 51 269
7 52 197
7 53 81
7 54 208
7 55 110
7 56 152
7 57 172
7 58 59
7 59 98
7 60 105
7 61 118
7 62 115
7 63 11
7 64 39
7 65 148
7 66 23
7 67 202
7 68 57
7 69 155
7 70 234
7 71 18
7 72 134
7 73 247
7 74 248
7 75 144
7 76 257
7 77 6
7 78 269
7 79 187
7 80 188
7 81 73
7 82 164
7 83 229
7 84 64
7 85 133
7 86 224
7 87 90
7 88 217
7 89 166
7 90 216
8 9 59
8 10 267
8 11 189
8 12 11
8 13 260
8 14 47
8 15 112
8 16 151
8 17 102
8 18 176
8 19 263
8 20 76
8 21 73
8 22 17
8 23 72
8 24 133
8 25 166
8 26 64
8 27 269
8 28 66
8 29 99
8 30 224
8 31 34
8 32 112
8 33 10
8 34 201
8 35 191
8 36 107
8 37 176
8 38 141
8 39 86
8 40 141
8 41 4
8 42 216
8 43 76
8 44 199
8 45 203
8 46 156
8 47 111
8 48 207
8 49 250
8 50 65
8 51 261
8 52 230
8 53 55
8 54 204
8 55 20
8 56 106
8 57 28
8 58 13
8 59 206
8 60 68
8 61 158
8 62 81
8 63 240
8 64 98
8 65 105
8 66 269
8 67 149
8 68 129
8 69 30
8 70 180
8 71 225
8 72 106
8 73 104
8 74 57
8 75 250
8 76 172
8 77 122
8 78 172
8 79 223
8 80 45
8 81 108
8 82 35
8 83 82
8 84 222
8 85 149
8 86 79
8 87 187
8 88 264
8 89 163
8 90 135
9 10 3
9 11 49
9 12 246
9 13 50
9 14 62
9 15 24
9 16 205
9 17 260
9 18 213
9 19 254
9 20 250
9 21 83
9 22 97
9 23 181
9 24 138
9 25 162
9 26 181
9 27 191
9 28 257
9 29 199
9 30 96
9 31 76
9 32 89
9 33 54
9 34 87
9 35 240
9 36 16
9 37 34
9 38 215
9 39 167
9 40 46
9 41 41
9 42 66
9 43 75
9 44 165
9 45 173
9 46 19
9 47 12
9 48 56
9 49 199
9 50 44
9 51 127
9 52 247
9 53 198
9 54 110
9 55 183
9 56 105
9 57 17
9 58 142
9 59 112
9 60 32
9 61 109
9 62 249
9 63 70
9 64 264
9 65 253
9 66 235
9 67 33
9 68 21
9 69 130
9 70 205
9 71 219
9 72 78
9 73 57
9 74 60
9 75 84
9 76 112
9 77 72
9 78 247
9 79 205
9 80 104
9 81 247
9 82 203
9 83 169
9 84 140
9 85 103
9 86 63
9 87 111
9 88 63
9 89 86
9 90 251
10 11 50
10 12 13
10 13 88
10 14 26
10 15 178
10 16 143
10 17 31
10 18 129
10 19 138
10 20 107
10 21 136
10 22 21
10 23 139
10 24 19
10 25 42
10 26 72
10 27 151
10 28 224
10 29 34
10 30 73
10 31 67
10 32 193
10 33 219
10 34 80
10 35 186
10 36 207
10 37 245
10 38 249
10 39 31
10 40 40
10 41 238
10 42 172
10 43 239
10 44 188
10 45 173
10 46 177
10 47 252
10 48 245
10 49 57
10 50 235
10 51 9
10 52 61
10 53 123
10 54 133
10 55 175
10 56 219
10 57 51
10 58 123
10 59 89
10 60 72
10 61 52
10 62 207
10 63 68
10 64 224
10 65 131
10 66 110
10 67 264
10 68 198
10 69 220
10 70 67
10 71 254
10 72 111
10 73 185
10 74 78
10 75 178
10 76 159
10 77 88
10 78 35
10 79 36
10 80 58
10 81 15
10 82 23
10 83 32
10 84 33
10 85 67
10 86 74
10 87 212
10 88 78
10 89 147
10 90 17
11 12 178
11 13 121
11 14 249
11 15 219
11 16 137
11 17 215
11 18 12
11 19 241
11 20 247
11 21 96
11 22 59
11 23 153
11 24 48
11 25 85
11 26 105
11 27 32
11 28 240
11 29 122
11 30 46
11 31 64
11 32 174
11 33 130
11 34 51
11 35 151
11 36 155
11 37 160
11 38 75
11 39 245
11 40 76
11 41 5
11 42 186
11 43 206
11 44 255
11 45 35
11 46 166
11 47 215
11 48 52
11 49 171
11 50 151
11 51 56
11 52 65
11 53 229
11 54 9
11 55 3
11 56 164
11 57 0
11 58 236
11 59 269
11 60 178
11 61 140
11 62 263
11 63 140
11 64 83
11 65 15
11 66 20
11 67 115
11 68 174
11 69 234
11 70 208
11 71 85
11 72 195
11 73 258
11 74 248
11 75 50
11 76 253
11 77 193
11 78 55
11 79 54
11 80 202
11 81 226
11 82 148
11 83 74
11 84 240
11 85 21
11 86 158
11 87 141
11 88 33
11 89 168
11 90 78
12 13 233
12 14 155
12 15 160
12 16 88
12 17 91
12 18 59
12 19 234
12 20 121
12 21 114
12 22 36
12 23 183
12 24 48
12 25 9
12 26 182
12 27 118
12 28 0
12 29 29
12 30 50
12 31 4
12 32 221
12 33 121
12 34 178
12 35 97
12 36 210
12 37 236
12 38 37
12 39 200
12 40 63
12 41 232
12 42 125
12 43 89
12 44 237
12 45 235
12 46 258
12 47 57
12 48 161
12 49 258
12 50 241
12 51 208
12 52 142
12 53 116
12 54 207
12 55 32
12 56 169
12 57 113
12 58 9
12 59 211
12 60 112
12 61 238
12 62 29
12 63 126
12 64 80
12 65 54
12 66 60
12 67 210
12 68 151
12 69 129
12 70 144
12 71 228
12 72 32
12 73 156
12 74 202
12 75 5
12 76 123
12 77 174
12 78 156
12 79 101
12 80 144
12 81 102
12 82 265
12 83 121
12 84 159
12 85 208
12 86 125
12 87 226
12 88 198
12 89 134
12 90 181
13 14 159
13 15 73
13 16 186
13 17 194
13 18 178
13 19 84
13 20 126
13 21 153
13 22 181
13 23 145
13 24 29
13 25 176
13 26 101
13 27 155
13 28 108
13 29 32
13 30 186
13 31 154
13 32 70
13 33 220
13 34 77
13 35 152
13 36 174
13 37 25
13 38 185
13 39 101
13 40 157
13 41 95
13 42 119
13 43 115
13 44 12
13 45 171
13 46 154
13 47 214
13 48 193
13 49 169
13 50 112
13 51 190
13 52 90
13 53 86
13 54 259
13 55 204
13 56 87
13 57 240
13 58 252
13 59 142
13 60 254
13 61 266
13 62 184
13 63 114
13 64 228
13 65 7
13 66 154
13 67 174
13 68 267
13 69 78
13 70 49
13 71 92
13 72 165
13 73 146
13 74 47
13 75 81
13 76 175
13 77 143
13 78 63
13 79 34
13 80 81
13 81 122
13 82 223
13 83 36
13 84 43
13 85 148
13 86 6
13 87 35
13 88 174
13 89 183
13 90 174
14 15 220
14 16 201
14 17 112
14 18 207
14 19 74
14 20 20
14 21 223
14 22 146
14 23 40
14 24 132
14 25 213
14 26 105
14 27 251
14 28 174
14 29 112
14 30 151
14 31 15
14 32 79
14 33 204
14 34 6
14 35 163
14 36 262
14 37 142
14 38 264
14 39 191
14 40 40
14 41 238
14 42 219
14 43 155
14 44 226
14 45 22
14 46 92
14 47 233
14 48 199
14 49 254
14 50 127
14 51 105
14 52 70
14 53 220
14 54 194
14 55 132
14 56 234
14 57 4
14 58 240
14 59 267
14 60 249
14 61 111
14 62 118
14 63 101
14 64 131
14 65 131
14 66 119
14 67 62
14 68 243
14 69 171
14 70 263
14 71 224
14 72 151
14 73 226
14 74 148
14 75 99
14 76 172
14 77 241
14 78 158
14 79 120
14 80 226
14 81 18
14 82 187
14 83 164
14 84 97
14 85 28
14 86 44
14 87 162
14 88 267
14 89 186
14 90 268
15 16 75
15 17 155
15 18 149
15 19 18
15 20 66
15 21 22
15 22 167
15 23 259
15 24 114
15 25 35
15 26 232
15 27 63
15 28 206
15 29 204
15 30 105
15 31 4
15 32 41
15 33 198
15 34 153
15 35 146
15 36 132
15 37 84
15 38 149
15 39 35
15 40 86
15 41 192
15 42 114
15 43 193
15 44 95
15 45 190
15 46 265
15 47 57
15 48 22
15 49 178
15 50 8
15 51 189
15 52 44
15 53 98
15 54 83
15 55 93
15 56 216
15 57 56
15 58 9
15 59 224
15 60 214
15 61 121
15 62 25
15 63 159
15 64 258
15 65 24
15 66 218
15 67 193
15 68 30
15 69 239
15 70 177
15 71 62
15 72 160
15 73 21
15 74 245
15 75 178
15 76 123
15 77 15
15 78 256
15 79 237
15 80 140
15 81 257
15 82 260
15 83 188
15 84 65
15 85 263
15 86 93
15 87 25
15 88 190
15 89 127
15 90 133
16 17 97
16 18 169
16 19 38
16 20 16
16 21 210
16 22 56
16 23 224
16 24 146
16 25 190
16 26 70
16 27 218
16 28 117
16 29 41
16 30 31
16 31 123
16 32 145
16 33 269
16 34 175
16 35 210
16 36 86
16 37 128
16 38 50
16 39 176
16 40 35
16 41 175
16 42 216
16 43 265
16 44 65
16 45 38
16 46 226
16 47 146
16 48 55
16 49 227
16 50 173
16 51 31
16 52 241
16 53 20
16 54 101
16 55 184
16 56 114
16 57 248
16 58 255
16 59 60
16 60 5
16 61 90
16 62 242
16 63 187
16 64 124
16 65 205
16 66 263
16 67 114
16 68 19
16 69 243
16 70 152
16 71 29
16 72 149
16 73 71
16 74 16
16 75 93
16 76 52
16 77 151
16 78 269
16 79 224
16 80 54
16 81 191
16 82 246
16 83 129
16 84 37
16 85 91
16 86 182
16 87 266
16 88 7
16 89 23
16 90 258
17 18 34
17 19 3
17 20 93
17 21 113
17 22 72
17 23 268
17 24 46
17 25 109
17 26 142
17 27 111
17 28 87
17 29 38
17 30 105
17 31 207
17 32 32
17 33 156
17 34 165
17 35 264
17 36 269
17 37 119
17 38 188
17 39 125
17 40 56
17 41 111
17 42 69
17 43 207
17 44 96
17 45 269
17 46 58
17 47 72
17 48 191
17 49 42
17 50 21
17 51 194
17 52 202
17 53 171
17 54 124
17 55 243
17 56 144
17 57 80
17 58 45
17 59 221
17 60 122
17 61 129
17 62 25
17 63 215
17 64 49
17 65 156
17 66 27
17 67 165
17 68 114
17 69 184
17 70 61
17 71 150
17 72 94
17 73 200
17 74 159
17 75 140
17 76 259
17 77 192
17 78 11
17 79 19
17 80 155
17 81 214
17 82 156
17 83 237
17 84 206
17 85 203
17 86 174
17 87 29
17 88 113
17 89 229
17 90 69
18 19 256
18 20 66
18 21 33
18 22 252
18 23 252
18 24 237
18 25 139
18 26 0
18 27 11
18 28 263
18 29 83
18 30 262
18 31 60
18 32 241
18 33 44
18 34 156
18 35 234
18 36 30
18 37 256
18 38 255
18 39 55
18 40 205
18 41 144
18 42 153
18 43 72
18 44 36
18 45 156
18 46 113
18 47 225
18 48 155
18 49 115
18 50 214
18 51 97
18 52 91
18 53 21
18 54 239
18 55 46
18 56 228
18 57 234
18 58 161
18 59 88
18 60 165
18 61 194
18 62 54
18 63 10
18 64 258
18 65 123
18 66 192
18 67 148
18 68 137
18 69 152
18 70 85
18 71 147
18 72 269
18 73 158
18 74 234
18 75 74
18 76 145
18 77 111
18 78 91
18 79 64
18 80 192
18 81 135
18 82 66
18 83 250
18 84 51
18 85 100
18 86 121
18 87 222
18 88 187
18 89 83
18 90 82
19 20 254
19 21 157
19 22 267
19 23 190
19 24 246
19 25 248
19 26 101
19 27 47
19 28 34
19 29 215
19 30 95
19 31 15
19 32 245
19 33 261
19 34 189
19 35 261
19 36 223
19 37 174
19 38 9
19 39 62
19 40 192
19 41 182
19 42 249
19 43 154
19 44 111
19 45 86
19 46 236
19 47 150
19 48 208
19 49 62
19 50 181
19 51 2
19 52 94
19 53 178
19 54 260
19 55 194
19 56 82
19 57 177
19 58 222
19 59 165
19 60 78
19 61 158
19 62 73
19 63 100
19 64 219
19 65 158
19 66 64
19 67 67
19 68 254
19 69 130
19 70 59
19 71 66
19 72 257
19 73 178
19 74 156
19 75 108
19 76 145
19 77 77
19 78 106
19 79 5
19 80 44
19 81 150
19 82 119
19 83 161
19 84 89
19 85 131
19 86 149
19 87 159
19 88 229
19 89 23
19 90 48
20 21 234
20 22 34
20 23 208
20 24 214
20 25 148
20 26 84
20 27 242
20 28 109
20 29 268
20 30 189
20 31 214
20 32 199
20 33 74
20 34 82
20 35 93
20 36 55
20 37 184
20 38 143
20 39 139
20 40 98
20 41 229
20 42 115
20 43 103
20 44 91
20 45 229
20 46 43
20 47 132
20 48 62
20 49 96
20 50 119
20 51 153
20 52 32
20 53 222
20 54 221
20 55 177
20 56 151
20 57 178
20 58 235
20 59 256
20 60 266
20 61 0
20 62 76
20 63 110
20 64 147
20 65 29
20 66 55
20 67 217
20 68 144
20 69 139
20 70 204
20 71 83
20 72 216
20 73 122
20 74 143
20 75 23
20 76 216
20 77 216
20 78 153
20 79 210
20 80 69
20 81 217
20 82 234
20 83 57
20 84 214
20 85 58
20 86 154
20 87 46
20 88 228
20 89 106
20 90 76
21 22 79
21 23 182
21 24 41
21 25 241
21 26 165
21 27 29
21 28 156
21 29 52
21 30 17
21 31 211
21 32 39
21 33 182
21 34 130
21 35 126
21 36 207
21 37 65
21 38 175
21 39 113
21 40 189
21 41 201
21 42 160
21 43 0
21 44 167
21 45 255
21 46 11
21 47 104
21 48 197
21 49 96
21 50 61
21 51 269
21 52 162
21 53 257
21 54 12
21 55 151
21 56 60
21 57 221
21 58 52
21 59 41
21 60 138
21 61 156
21 62 123
21 63 119
21 64 215
21 65 71
21 66 248
21 67 190
21 68 223
21 69 105
21 70 3
21 71 168
21 72 35
21 73 188
21 74 78
21 75 188
21 76 241
21 77 98
21 78 17
21 79 79
21 80 18
21 81 222
21 82 33
21 83 157
21 84 36
21 85 78
21 86 211
21 87 6
21 88 104
21 89 248
21 90 73
22 23 220
22 24 186
22 25 142
22 26 233
22 27 181
22 28 93
22 29 151
22 30 66
22 31 208
22 32 119
22 33 240
22 34 109
22 35 188
22 36 133
22 37 10
22 38 114
22 39 210
22 40 108
22 41 243
22 42 36
22 43 268
22 44 186
22 45 214
22 46 71
22 47 32
22 48 143
22 49 44
22 50 12
22 51 266
22 52 71
22 53 113
22 54 247
22 55 31
22 56 262
22 57 68
22 58 27
22 59 55
22 60 61
22 61 242
22 62 84
22 63 96
22 64 127
22 65 67
22 66 54
22 67 133
22 68 145
22 69 59
22 70 238
22 71 88
22 72 105
22 73 151
22 74 211
22 75 60
22 76 2
22 77 55
22 78 22
22 79 214
22 80 254
22 81 240
22 82 90
22 83 110
22 84 225
22 85 3
22 86 16
22 87 166
22 88 179
22 89 140
22 90 99
23 24 182
23 25 192
23 26 34
23 27 179
23 28 127
23 29 206
23 30 131
23 31 40
23 32 266
23 33 74
23 34 129
23 35 15
23 36 206
23 37 120
23 38 127
23 39 205
23 40 178
23 41 260
23 42 21
23 43 79
23 44 28
23 45 84
23 46 153
23 47 71
23 48 60
23 49 262
23 50 249
23 51 55
23 52 225
23 53 224
23 54 32
23 55 59
23 56 208
23 57 140
23 58 186
23 59 129
23 60 197
23 61 67
23 62 179
23 63 253
23 64 99
23 65 86
23 66 33
23 67 244
23 68 106
23 69 76
23 70 106
23 71 156
23 72 194
23 73 27
23 74 249
23 75 230
23 76 203
23 77 58
23 78 117
23 79 4
23 80 209
23 81 43
23 82 198
23 83 45
23 84 229
23 85 46
23 86 38
23 87 14
23 88 16
23 89 239
23 90 49
24 25 184
24 26 23
24 27 34
24 28 53
24 29 115
24 30 88
24 31 235
24 32 114
24 33 218
24 34 185
24 35 102
24 36 237
24 37 256
24 38 128
24 39 76
24 40 205
24 41 82
24 42 21
24 43 167
24 44 138
24 45 100
24 46 266
24 47 209
24 48 45
24 49 7
24 50 152
24 51 68
24 52 20
24 53 227
24 54 194
24 55 202
24 56 104
24 57 142
24 58 35
24 59 148
24 60 206
24 61 202
24 62 135
24 63 224
24 64 33
24 65 76
24 66 143
24 67 137
24 68 108
24 69 89
24 70 125
24 71 177
24 72 81
24 73 245
24 74 147
24 75 166
24 76 99
24 77 55
24 78 149
24 79 177
24 80 28
24 81 68
24 82 250
24 83 32
24 84 93
24 85 178
24 86 222
24 87 137
24 88 28
24 89 230
24 90 173
25 26 36
25 27 156
25 28 33
25 29 146
25 30 105
25 31 21
25 32 67
25 33 26
25 34 35
25 35 177
25 36 104
25 37 228
25 38 25
25 39 107
25 40 136
25 41 251
25 42 3
25 43 255
25 44 198
25 45 82
25 46 263
25 47 237
25 48 125
25 49 228
25 50 253
25 51 196
25 52 209
25 53 248
25 54 85
25 55 125
25 56 162
25 57 52
25 58 254
25 59 119
25 60 239
25 61 133
25 62 162
25 63 109
25 64 10
25 65 76
25 66 225
25 67 19
25 68 148
25 69 52
25 70 45
25 71 17
25 72 216
25 73 57
25 74 221
25 75 259
25 76 121
25 77 70
25 78 51
25 79 206
25 80 23
25 81 235
25 82 205
25 83 231
25 84 10
25 85 142
25 86 120
25 87 161
25 88 260
25 89 102
25 90 53
26 27 36
26 28 187
26 29 266
26 30 254
26 31 202
26 32 66
26 33 226
26 34 16
26 35 104
26 36 221
26 37 88
26 38 98
26 39 129
26 40 43
26 41 32
26 42 132
26 43 233
26 44 233
26 45 200
26 46 67
26 47 133
26 48 53
26 49 229
26 50 215
26 51 156
26 52 239
26 53 166
26 54 186
26 55 220
26 56 178
26 57 70
26 58 262
26 59 79
26 60 209
26 61 203
26 62 238
26 63 129
26 64 173
26 65 20
26 66 215
26 67 201
26 68 35
26 69 246
26 70 128
26 71 91
26 72 134
26 73 90
26 74 186
26 75 220
26 76 236
26 77 147
26 78 114
26 79 170
26 80 181
26 81 200
26 82 191
26 83 232
26 84 70
26 85 103
26 86 264
26 87 65
26 88 262
26 89 245
26 90 95
27 28 22
27 29 117
27 30 147
27 31 165
27 32 23
27 33 244
27 34 81
27 35 87
27 36 157
27 37 18
27 38 266
27 39 84
27 40 197
27 41 175
27 42 242
27 43 91
27 44 146
27 45 53
27 46 254
27 47 15
27 48 124
27 49 182
27 50 55
27 51 157
27 52 42
27 53 99
27 54 6
27 55 224
27 56 136
27 57 71
27 58 232
27 59 152
27 60 27
27 61 99
27 62 203
27 63 146
27 64 82
27 65 54
27 66 118
27 67 5
27 68 131
27 69 189
27 70 4
27 71 138
27 72 202
27 73 140
27 74 79
27 75 126
27 76 197
27 77 236
27 78 22
27 79 115
27 80 25
27 81 44
27 82 134
27 83 123
27 84 255
27 85 234
27 86 226
27 87 101
27 88 98
27 89 71
27 90 142
28 29 169
28 30 160
28 31 138
28 32 109
28 33 160
28 34 128
28 35 62
28 36 21
28 37 124
28 38 128
28 39 196
28 40 246
28 41 81
28 42 143
28 43 20
28 44 157
28 45 119
28 46 156
28 47 79
28 48 120
28 49 119
28 50 80
28 51 129
28 52 160
28 53 75
28 54 99
28 55 141
28 56 98
28 57 187
28 58 92
28 59 199
28 60 88
28 61 155
28 62 171
28 63 205
28 64 147
28 65 227
28 66 85
28 67 214
28 68 219
28 69 143
28 70 101
28 71 148
28 72 110
28 73 225
28 74 47
28 75 124
28 76 204
28 77 49
28 78 10
28 79 150
28 80 83
28 81 226
28 82 228
28 83 135
28 84 150
28 85 188
28 86 265
28 87 235
28 88 47
28 89 49
28 90 111
29 30 158
29 31 55
29 32 97
29 33 181
29 34 115
29 35 42
29 36 178
29 37 78
29 38 59
29 39 216
29 40 106
29 41 138
29 42 60
29 43 220
29 44 94
29 45 159
29 46 140
29 47 15
29 48 138
29 49 34
29 50 252
29 51 189
29 52 87
29 53 115
29 54 269
29 55 217
29 56 36
29 57 19
29 58 82
29 59 216
29 60 40
29 61 142
29 62 13
29 63 27
29 64 258
29 65 2
29 66 88
29 67 71
29 68 25
29 69 21
29 70 100
29 71 232
29 72 244
29 73 112
29 74 10
29 75 5
29 76 3
29 77 58
29 78 159
29 79 225
29 80 204
29 81 213
29 82 234
29 83 198
29 84 29
29 85 204
29 86 193
29 87 76
29 88 219
29 89 96
29 90 23
30 31 10
30 32 121
30 33 140
30 34 31
30 35 204
30 36 83
30 37 38
30 38 54
30 39 160
30 40 198
30 41 9
30 42 1
30 43 196
30 44 192
30 45 158
30 46 162
30 47 256
30 48 196
30 49 44
30 50 20
30 51 246
30 52 69
30 53 82
30 54 89
30 55 211
30 56 85
30 57 137
30 58 134
30 59 206
30 60 65
30 61 155
30 62 187
30 63 221
30 64 1
30 65 202
30 66 12
30 67 245
30 68 88
30 69 242
30 70 124
30 71 20
30 72 68
30 73 224
30 74 128
30 75 136
30 76 160
30 77 232
30 78 244
30 79 208
30 80 30
30 81 14
30 82 170
30 83 149
30 84 217
30 85 233
30 86 130
30 87 13
30 88 7
30 89 95
30 90 61
31 32 46
31 33 108
31 34 208
31 35 227
31 36 28
31 37 128
31 38 13
31 39 72
31 40 261
31 41 265
31 42 66
31 43 158
31 44 214
31 45 59
31 46 151
31 47 133
31 48 122
31 49 222
31 50 16
31 51 137
31 52 57
31 53 205
31 54 163
31 55 128
31 56 235
31 57 65
31 58 12
31 59 17
31 60 83
31 61 57
31 62 77
31 63 253
31 64 224
31 65 117
31 66 128
31 67 132
31 68 105
31 69 170
31 70 188
31 71 158
31 72 248
31 73 266
31 74 64
31 75 138
31 76 177
31 77 37
31 78 185
31 79 208
31 80 98
31 81 2
31 82 150
31 83 185
31 84 80
31 85 114
31 86 174
31 87 100
31 88 117
31 89 29
31 90 231
32 33 28
32 34 89
32 35 136
32 36 146
32 37 198
32 38 159
32 39 18
32 40 187
32 41 49
32 42 133
32 43 73
32 44 247
32 45 86
32 46 233
32 47 261
32 48 212
32 49 64
32 50 262
32 51 105
32 52 113
32 53 69
32 54 199
32 55 171
32 56 200
32 57 160
32 58 32
32 59 148
32 60 23
32 61 159
32 62 41
32 63 25
32 64 65
32 65 261
32 66 138
32 67 106
32 68 109
32 69 85
32 70 196
32 71 10
32 72 149
32 73 113
32 74 145
32 75 143
32 76 18
32 77 90
32 78 135
32 79 183
32 80 12
32 81 187
32 82 139
32 83 228
32 84 40
32 85 4
32 86 43
32 87 196
32 88 117
32 89 234
32 90 167
33 34 181
33 35 166
33 36 143
33 37 6
33 38 201
33 39 130
33 40 233
33 41 120
33 42 201
33 43 263
33 44 170
33 45 167
33 46 70
33 47 5
33 48 196
33 49 145
33 50 47
33 51 107
33 52 65
33 53 75
33 54 213
33 55 2
33 56 2
33 57 153
33 58 212
33 59 232
33 60 127
33 61 83
33 62 87
33 63 58
33 64 100
33 65 94
33 66 13
33 67 99
33 68 16
33 69 82
33 70 104
33 71 40
33 72 157
33 73 201
33 74 48
33 75 115
33 76 10
33 77 254
33 78 15
33 79 266
33 80 131
33 81 197
33 82 89
33 83 2
33 84 108
33 85 152
33 86 180
33 87 41
33 88 10
33 89 228
33 90 172
34 35 102
34 36 244
34 37 206
34 38 105
34 39 133
34 40 42
34 41 169
34 42 41
34 43 194
34 44 162
34 45 27
34 46 254
34 47 64
34 48 72
34 49 106
34 50 86
34 51 91
34 52 10
34 53 98
34 54 167
34 55 118
34 56 120
34 57 58
34 58 251
34 59 157
34 60 233
34 61 205
34 62 130
34 63 173
34 64 115
34 65 89
34 66 184
34 67 39
34 68 229
34 69 246
34 70 171
34 71 133
34 72 117
34 73 68
34 74 187
34 75 134
34 76 147
34 77 169
34 78 210
34 79 186
34 80 63
34 81 42
34 82 138
34 83 10
34 84 103
34 85 70
34 86 176
34 87 219
34 88 88
34 89 90
34 90 239
35 36 12
35 37 204
35 38 269
35 39 234
35 40 109
35 41 247
35 42 52
35 43 110
35 44 92
35 45 158
35 46 22
35 47 137
35 48 4
35 49 228
35 50 149
35 51 38
35 52 44
35 53 78
35 54 179
35 55 99
35 56 194
35 57 52
35 58 132
35 59 254
35 60 56
35 61 122
35 62 115
35 63 46
35 64 18
35 65 99
35 66 103
35 67 31
35 68 106
35 69 180
35 70 213
35 71 268
35 72 160
35 73 71
35 74 169
35 75 137
35 76 145
35 77 259
35 78 233
35 79 213
35 80 136
35 81 32
35 82 114
35 83 7
35 84 34
35 85 146
35 86 97
35 87 48
35 88 203
35 89 59
35 90 232
36 37 110
36 38 201
36 39 186
36 40 212
36 41 58
36 42 209
36 43 256
36 44 161
36 45 90
36 46 200
36 47 261
36 48 34
36 49 233
36 50 75
36 51 254
36 52 122
36 53 253
36 54 96
36 55 44
36 56 18
36 57 110
36 58 267
36 59 258
36 60 229
36 61 98
36 62 251
36 63 183
36 64 81
36 65 173
36 66 207
36 67 178
36 68 127
36 69 170
36 70 179
36 71 171
36 72 107
36 73 12
36 74 239
36 75 38
36 76 60
36 77 221
36 78 57
36 79 37
36 80 70
36 81 200
36 82 51
36 83 254
36 84 9
36 85 120
36 86 215
36 87 108
36 88 148
36 89 257
36 90 98
37 38 131
37 39 23
37 40 205
37 41 15
37 42 226
37 43 21
37 44 267
37 45 182
37 46 29
37 47 202
37 48 0
37 49 41
37 50 96
37 51 155
37 52 259
37 53 99
37 54 249
37 55 162
37 56 124
37 57 99
37 58 218
37 59 156
37 60 167
37 61 50
37 62 56
37 63 110
37 64 145
37 65 228
37 66 6
37 67 69
37 68 148
37 69 262
37 70 89
37 71 101
37 72 106
37 73 21
37 74 138
37 75 189
37 76 23
37 77 139
37 78 22
37 79 228
37 80 55
37 81 135
37 82 161
37 83 15
37 84 55
37 85 29
37 86 85
37 87 264
37 88 47
37 89 220
37 90 114
38 39 218
38 40 174
38 41 40
38 42 113
38 43 93
38 44 50
38 45 226
38 46 125
38 47 166
38 48 42
38 49 159
38 50 0
38 51 126
38 52 228
38 53 46
38 54 269
38 55 161
38 56 69
38 57 215
38 58 3
38 59 90
38 60 81
38 61 238
38 62 103
38 63 138
38 64 125
38 65 230
38 66 233
38 67 269
38 68 197
38 69 93
38 70 227
38 71 35
38 72 24
38 73 136
38 74 21
38 75 1
38 76 72
38 77 217
38 78 181
38 79 40
38 80 229
38 81 252
38 82 7
38 83 71
38 84 129
38 85 162
38 86 131
38 87 51
38 88 97
38 89 63
38 90 248
39 40 17
39 41 52
39 42 156
39 43 19
39 44 237
39 45 222
39 46 100
39 47 137
39 48 116
39 49 202
39 50 78
39 51 144
39 52 121
39 53 34
39 54 12
39 55 148
39 56 186
39 57 7
39 58 225
39 59 71
39 60 62
39 61 140
39 62 267
39 63 195
39 64 94
39 65 91
39 66 25
39 67 89
39 68 250
39 69 36
39 70 163
39 71 200
39 72 6
39 73 50
39 74 101
39 75 228
39 76 6
39 77 258
39 78 144
39 79 102
39 80 212
39 81 172
39 82 41
39 83 85
39 84 0
39 85 203
39 86 230
39 87 255
39 88 6
39 89 205
39 90 146
40 41 56
40 42 177
40 43 205
40 44 235
40 45 103
40 46 143
40 47 53
40 48 27
40 49 80
40 50 128
40 51 49
40 52 43
40 53 189
40 54 257
40 55 241
40 56 10
40 57 142
40 58 56
40 59 197
40 60 256
40 61 11
40 62 213
40 63 163
40 64 16
40 65 31
40 66 151
40 67 237
40 68 112
40 69 215
40 70 257
40 71 19
40 72 141
40 73 106
40 74 131
40 75 164
40 76 223
40 77 4
40 78 6
40 79 75
40 80 213
40 81 75
40 82 51
40 83 57
40 84 213
40 85 79
40 86 192
40 87 127
40 88 222
40 89 153
40 90 57
41 42 176
41 43 269
41 44 221
41 45 201
41 46 245
41 47 162
41 48 7
41 49 221
41 50 184
41 51 251
41 52 73
41 53 185
41 54 94
41 55 95
41 56 146
41 57 2
41 58 237
41 59 199
41 60 187
41 61 257
41 62 137
41 63 98
41 64 105
41 65 0
41 66 80
41 67 88
41 68 166
41 69 17
41 70 81
41 71 15
41 72 135
41 73 205
41 74 138
41 75 45
41 76 116
41 77 71
41 78 63
41 79 209
41 80 41
41 81 188
41 82 41
41 83 141
41 84 146
41 85 97
41 86 189
41 87 268
41 88 176
41 89 9
41 90 251
42 43 243
42 44 228
42 45 48
42 46 132
42 47 225
42 48 193
42 49 113
42 50 38
42 51 26
42 52 150
42 53 97
42 54 151
42 55 197
42 56 69
42 57 171
42 58 43
42 59 141
42 60 232
42 61 124
42 62 183
42 63 155
42 64 43
42 65 258
42 66 254
42 67 16
42 68 252
42 69 26
42 70 139
42 71 89
42 72 170
42 73 81
42 74 98
42 75 226
42 76 127
42 77 157
42 78 90
42 79 197
42 80 258
42 81 265
42 82 157
42 83 59
42 84 224
42 85 6
42 86 180
42 87 40
42 88 260
42 89 228
42 90 130
43 44 62
43 45 221
43 46 251
43 47 132
43 48 120
43 49 261
43 50 179
43 51 268
43 52 220
43 53 13
43 54 135
43 55 174
43 56 148
43 57 83
43 58 126
43 59 3
43 60 251
43 61 129
43 62 107
43 63 95
43 64 228
43 65 179
43 66 197
43 67 181
43 68 210
43 69 183
43 70 104
43 71 86
43 72 222
43 73 124
43 74 264
43 75 183
43 76 1
43 77 70
43 78 48
43 79 81
43 80 183
43 81 138
43 82 234
43 83 260
43 84 40
43 85 52
43 86 249
43 87 228
43 88 260
43 89 117
43 90 106
44 45 218
44 46 134
44 47 140
44 48 36
44 49 141
44 50 216
44 51 80
44 52 231
44 53 234
44 54 157
44 55 61
44 56 174
44 57 35
44 58 159
44 59 102
44 60 218
44 61 190
44 62 194
44 63 201
44 64 121
44 65 240
44 66 52
44 67 193
44 68 3
44 69 231
44 70 74
44 71 27
44 72 235
44 73 268
44 74 137
44 75 68
44 76 248
44 77 224
44 78 248
44 79 177
44 80 65
44 81 59
44 82 4
44 83 97
44 84 158
44 85 61
44 86 131
44 87 42
44 88 251
44 89 66
44 90 126
45 46 118
45 47 68
45 48 35
45 49 219
45 50 219
45 51 129
45 52 123
45 53 136
45 54 195
45 55 219
45 56 189
45 57 30
45 58 265
45 59 150
45 60 192
45 61 127
45 62 187
45 63 161
45 64 261
45 65 39
45 66 68
45 67 224
45 68 36
45 69 226
45 70 141
45 71 68
45 72 53
45 73 130
45 74 64
45 75 239
45 76 161
45 77 112
45 78 243
45 79 105
45 80 8
45 81 149
45 82 204
45 83 148
45 84 17
45 85 88
45 86 96
45 87 243
45 88 70
45 89 64
45 90 200
46 47 194
46 48 237
46 49 108
46 50 92
46 51 150
46 52 141
46 53 79
46 54 89
46 55 231
46 56 16
46 57 172
46 58 83
46 59 23
46 60 250
46 61 245
46 62 7
46 63 14
46 64 24
46 65 10
46 66 230
46 67 195
46 68 267
46 69 117
46 70 237
46 71 11
46 72 1
46 73 171
46 74 175
46 75 31
46 76 174
46 77 62
46 78 269
46 79 19
46 80 37
46 81 123
46 82 66
46 83 167
46 84 63
46 85 40
46 86 19
46 87 260
46 88 129
46 89 122
46 90 60
47 48 69
47 49 154
47 50 234
47 51 169
47 52 93
47 53 235
47 54 233
47 55 54
47 56 246
47 57 146
47 58 14
47 59 74
47 60 59
47 61 91
47 62 59
47 63 88
47 64 120
47 65 165
47 66 140
47 67 208
47 68 176
47 69 97
47 70 183
47 71 0
47 72 217
47 73 192
47 74 225
47 75 213
47 76 22
47 77 93
47 78 31
47 79 264
47 80 110
47 81 189
47 82 125
47 83 251
47 84 219
47 85 151
47 86 125
47 87 15
47 88 113
47 89 184
47 90 154
48 49 228
48 50 63
48 51 245
48 52 170
48 53 196
48 54 42
48 55 244
48 56 12
48 57 239
48 58 230
48 59 234
48 60 157
48 61 240
48 62 211
48 63 208
48 64 127
48 65 160
48 66 142
48 67 122
48 68 8
48 69 67
48 70 215
48 71 237
48 72 231
48 73 44
48 74 16
48 75 58
48 76 135
48 77 94
48 78 14
48 79 83
48 80 96
48 81 113
48 82 230
48 83 147
48 84 3
48 85 194
48 86 160
48 87 242
48 88 11
48 89 233
48 90 67
49 50 251
49 51 259
49 52 195
49 53 158
49 54 59
49 55 184
49 56 146
49 57 156
49 58 111
49 59 33
49 60 96
49 61 267
49 62 110
49 63 264
49 64 0
49 65 70
49 66 222
49 67 157
49 68 24
49 69 144
49 70 187
49 71 75
49 72 78
49 73 257
49 74 251
49 75 191
49 76 129
49 77 256
49 78 135
49 79 12
49 80 189
49 81 239
49 82 90
49 83 210
49 84 236
49 85 200
49 86 265
49 87 118
49 88 133
49 89 204
49 90 26
50 51 45
50 52 143
50 53 91
50 54 199
50 55 51
50 56 240
50 57 69
50 58 36
50 59 242
50 60 237
50 61 8
50 62 60
50 63 260
50 64 127
50 65 88
50 66 13
50 67 19
50 68 86
50 69 103
50 70 202
50 71 90
50 72 130
50 73 133
50 74 93
50 75 38
50 76 52
50 77 91
50 78 17
50 79 202
50 80 124
50 81 194
50 82 12
50 83 40
50 84 77
50 85 63
50 86 32
50 87 193
50 88 145
50 89 103
50 90 180
51 52 51
51 53 151
51 54 102
51 55 76
51 56 255
51 57 8
51 58 183
51 59 11
51 60 244
51 61 212
51 62 195
51 63 59
51 64 117
51 65 20
51 66 167
51 67 147
51 68 41
51 69 231
51 70 16
51 71 137
51 72 216
51 73 237
51 74 187
51 75 86
51 76 40
51 77 220
51 78 27
51 79 88
51 80 140
51 81 245
51 82 51
51 83 104
51 84 90
51 85 140
51 86 19
51 87 47
51 88 132
51 89 193
51 90 269
52 53 269
52 54 150
52 55 136
52 56 143
52 57 231
52 58 84
52 59 84
52 60 168
52 61 95
52 62 208
52 63 36
52 64 251
52 65 64
52 66 162
52 67 106
52 68 242
52 69 188
52 70 61
52 71 194
52 72 139
52 73 264
52 74 105
52 75 203
52 76 234
52 77 200
52 78 257
52 79 187
52 80 139
52 81 192
52 82 116
52 83 194
52 84 106
52 85 89
52 86 225
52 87 222
52 88 64
52 89 164
52 90 169
53 54 3
53 55 249
53 56 49
53 57 97
53 58 128
53 59 23
53 60 135
53 61 88
53 62 244
53 63 166
53 64 28
53 65 16
53 66 211
53 67 80
53 68 114
53 69 169
53 70 261
53 71 87
53 72 171
53 73 184
53 74 268
53 75 0
53 76 183
53 77 224
53 78 228
53 79 26
53 80 218
53 81 30
53 82 254
53 83 173
53 84 179
53 85 72
53 86 17
53 87 71
53 88 70
53 89 44
53 90 71
54 55 48
54 56 131
54 57 239
54 58 143
54 59 3
54 60 104
54 61 148
54 62 245
54 63 199
54 64 139
54 65 5
54 66 266
54 67 95
54 68 57
54 69 161
54 70 111
54 71 41
54 72 134
54 73 85
54 74 230
54 75 77
54 76 144
54 77 109
54 78 168
54 79 4
54 80 190
54 81 61
54 82 250
54 83 133
54 84 40
54 85 176
54 86 250
54 87 121
54 88 187
54 89 96
54 90 9
55 56 164
55 57 201
55 58 201
55 59 238
55 60 171
55 61 52
55 62 156
55 63 247
55 64 246
55 65 22
55 66 247
55 67 105
55 68 235
55 69 35
55 70 37
55 71 177
55 72 235
55 73 257
55 74 136
55 75 252
55 76 181
55 77 26
55 78 98
55 79 238
55 80 74
55 81 165
55 82 198
55 83 188
55 84 39
55 85 156
55 86 158
55 87 266
55 88 140
55 89 32
55 90 255
56 57 62
56 58 57
56 59 0
56 60 62
56 61 48
56 62 56
56 63 222
56 64 198
56 65 232
56 66 35
56 67 202
56 68 74
56 69 159
56 70 153
56 71 250
56 72 46
56 73 90
56 74 71
56 75 44
56 76 218
56 77 33
56 78 77
56 79 126
56 80 269
56 81 267
56 82 3
56 83 235
56 84 242
56 85 226
56 86 149
56 87 86
56 88 103
56 89 261
56 90 236
57 58 190
57 59 88
57 60 30
57 61 14
57 62 72
57 63 243
57 64 218
57 65 212
57 66 194
57 67 174
57 68 83
57 69 26
57 70 95
57 71 251
57 72 11
57 73 206
57 74 253
57 75 48
57 76 63
57 77 242
57 78 136
57 79 175
57 80 131
57 81 265
57 82 230
57 83 42
57 84 174
57 85 1
57 86 108
57 87 62
57 88 55
57 89 35
57 90 169
58 59 233
58 60 200
58 61 29
58 62 9
58 63 103
58 64 191
58 65 67
58 66 201
58 67 213
58 68 212
58 69 231
58 70 119
58 71 27
58 72 205
58 73 135
58 74 255
58 75 45
58 76 212
58 77 122
58 78 82
58 79 125
58 80 258
58 81 174
58 82 18
58 83 131
58 84 163
58 85 127
58 86 145
58 87 18
58 88 184
58 89 181
58 90 62
59 60 163
59 61 40
59 62 40
59 63 252
59 64 135
59 65 182
59 66 17
59 67 247
59 68 8
59 69 250
59 70 135
59 71 120
59 72 3
59 73 236
59 74 56
59 75 195
59 76 116
59 77 143
59 78 27
59 79 37
59 80 67
59 81 80
59 82 35
59 83 109
59 84 155
59 85 12
59 86 79
59 87 213
59 88 179
59 89 32
59 90 107
60 61 162
60 62 120
60 63 215
60 64 0
60 65 228
60 66 128
60 67 124
60 68 192
60 69 18
60 70 73
60 71 235
60 72 31
60 73 244
60 74 54
60 75 22
60 76 94
60 77 24
60 78 195
60 79 38
60 80 189
60 81 10
60 82 77
60 83 3
60 84 147
60 85 190
60 86 239
60 87 38
60 88 249
60 89 205
60 90 242
61 62 171
61 63 157
61 64 102
61 65 245
61 66 100
61 67 162
61 68 207
61 69 19
61 70 254
61 71 210
61 72 40
61 73 246
61 74 234
61 75 265
61 76 65
61 77 257
61 78 168
61 79 15
61 80 27
61 81 88
61 82 221
61 83 50
61 84 153
61 85 91
61 86 139
61 87 59
61 88 18
61 89 258
61 90 70
62 63 94
62 64 82
62 65 264
62 66 149
62 67 2
62 68 4
62 69 255
62 70 183
62 71 210
62 72 142
62 73 79
62 74 73
62 75 2
62 76 242
62 77 87
62 78 173
62 79 159
62 80 53
62 81 249
62 82 135
62 83 264
62 84 32
62 85 51
62 86 181
62 87 195
62 88 52
62 89 204
62 90 56
63 64 198
63 65 221
63 66 36
63 67 204
63 68 110
63 69 245
63 70 111
63 71 210
63 72 1
63 73 196
63 74 92
63 75 1
63 76 86
63 77 245
63 78 199
63 79 38
63 80 1
63 81 114
63 82 128
63 83 53
63 84 133
63 85 227
63 86 156
63 87 206
63 88 179
63 89 75
63 90 194
64 65 7
64 66 266
64 67 256
64 68 42
64 69 36
64 70 186
64 71 159
64 72 178
64 73 226
64 74 164
64 75 43
64 76 64
64 77 192
64 78 16
64 79 183
64 80 220
64 81 172
64 82 36
64 83 59
64 84 112
64 85 258
64 86 53
64 87 224
64 88 41
64 89 234
64 90 12
65 66 91
65 67 82
65 68 109
65 69 178
65 70 127
65 71 54
65 72 221
65 73 16
65 74 32
65 75 23
65 76 97
65 77 90
65 78 83
65 79 10
65 80 122
65 81 39
65 82 229
65 83 269
65 84 22
65 85 9
65 86 84
65 87 110
65 88 63
65 89 20
65 90 269
66 67 56
66 68 63
66 69 98
66 70 168
66 71 166
66 72 99
66 73 238
66 74 176
66 75 131
66 76 13
66 77 16
66 78 217
66 79 43
66 80 194
66 81 237
66 82 73
66 83 117
66 84 175
66 85 144
66 86 244
66 87 238
66 88 222
66 89 250
66 90 51
67 68 150
67 69 163
67 70 183
67 71 185
67 72 167
67 73 213
67 74 7
67 75 150
67 76 197
67 77 41
67 78 50
67 79 57
67 80 178
67 81 10
67 82 161
67 83 150
67 84 12
67 85 25
67 86 140
67 87 268
67 88 239
67 89 205
67 90 73
68 69 47
68 70 171
68 71 196
68 72 64
68 73 157
68 74 55
68 75 7
68 76 44
68 77 173
68 78 18
68 79 16
68 80 1
68 81 249
68 82 29
68 83 33
68 84 155
68 85 205
68 86 17
68 87 6
68 88 89
68 89 44
68 90 256
69 70 251
69 71 252
69 72 230
69 73 19
69 74 174
69 75 58
69 76 219
69 77 116
69 78 75
69 79 115
69 80 127
69 81 225
69 82 137
69 83 215
69 84 92
69 85 253
69 86 154
69 87 203
69 88 103
69 89 95
69 90 263
70 71 11
70 72 4
70 73 195
70 74 39
70 75 14
70 76 118
70 77 134
70 78 240
70 79 137
70 80 234
70 81 1
70 82 257
70 83 165
70 84 55
70 85 210
70 86 89
70 87 62
70 88 213
70 89 62
70 90 185
71 72 247
71 73 102
71 74 137
71 75 229
71 76 149
71 77 99
71 78 45
71 79 207
71 80 185
71 81 69
71 82 36
71 83 239
71 84 128
71 85 101
71 86 33
71 87 35
71 88 123
71 89 137
71 90 154
72 73 188
72 74 60
72 75 51
72 76 30
72 77 99
72 78 41
72 79 169
72 80 220
72 81 247
72 82 13
72 83 127
72 84 20
72 85 79
72 86 51
72 87 230
72 88 262
72 89 209
72 90 156
73 74 90
73 75 39
73 76 207
73 77 255
73 78 18
73 79 207
73 80 187
73 81 117
73 82 50
73 83 2
73 84 236
73 85 30
73 86 100
73 87 145
73 88 266
73 89 96
73 90 69
74 75 50
74 76 245
74 77 144
74 78 229
74 79 117
74 80 198
74 81 22
74 82 66
74 83 39
74 84 190
74 85 60
74 86 208
74 87 23
74 88 227
74 89 2
74 90 81
75 76 164
75 77 29
75 78 259
75 79 6
75 80 269
75 81 95
75 82 143
75 83 190
75 84 52
75 85 111
75 86 155
75 87 110
75 88 87
75 89 2
75 90 70
76 77 63
76 78 74
76 79 73
76 80 29
76 81 33
76 82 33
76 83 108
76 84 84
76 85 118
76 86 46
76 87 136
76 88 21
76 89 51
76 90 183
77 78 185
77 79 264
77 80 199
77 81 214
77 82 65
77 83 126
77 84 267
77 85 128
77 86 160
77 87 154
77 88 102
77 89 193
77 90 170
78 79 50
78 80 224
78 81 133
78 82 92
78 83 255
78 84 68
78 85 182
78 86 139
78 87 260
78 88 37
78 89 62
78 90 1
79 80 240
79 81 264
79 82 262
79 83 108
79 84 75
79 85 245
79 86 119
79 87 249
79 88 246
79 89 128
79 90 135
80 81 241
80 82 197
80 83 186
80 84 235
80 85 237
80 86 262
80 87 149
80 88 74
80 89 39
80 90 255
81 82 178
81 83 220
81 84 159
81 85 5
81 86 133
81 87 117
81 88 223
81 89 95
81 90 61
82 83 110
82 84 219
82 85 124
82 86 164
82 87 263
82 88 31
82 89 102
82 90 112
83 84 60
83 85 210
83 86 198
83 87 182
83 88 13
83 89 110
83 90 61
84 85 96
84 86 229
84 87 215
84 88 32
84 89 202
84 90 42
85 86 53
85 87 41
85 88 5
85 89 148
85 90 9
86 87 173
86 88 61
86 89 43
86 90 94
87 88 45
87 89 9
87 90 163
88 89 254
88 90 102
89 90 253
